Results/Experiment 1 Results/New Benchmark/RES_40/output_p1_0.50_p2_0.00_n_40_13.txt
solutions: 0 nodes: 0  modelTime: 124  solveTime: 9  totalTime: 137  modelSize: 7362  readTime: 4 matchingSize: 0
