Results/Experiment 2 Results/New Benchmark/output_p1_0.50_p2_0.00_n_40_13.lp
clingo version 5.4.0
Reading from tempSRTISolver.lp ...
Solving...
Answer: 1
matched(3,2) matched(2,3) matched(1,4) matched(8,5) matched(7,6) matched(6,7) matched(5,8) matched(4,1) matched(11,10) matched(10,11) matched(9,12) matched(12,9) matched(16,14) matched(17,15) matched(14,16) matched(15,17) matched(19,18) matched(18,19) matched(13,20) matched(20,13) matched(24,22) matched(25,23) matched(22,24) matched(23,25) matched(27,26) matched(26,27) matched(21,28) matched(28,21) matched(32,30) matched(29,31) matched(30,32) matched(31,29) matched(35,34) matched(34,35) matched(37,36) matched(36,37) matched(39,38) matched(38,39) matched(33,40) matched(40,33)
Optimization: 348
Answer: 2
matched(3,2) matched(2,3) matched(1,4) matched(8,5) matched(7,6) matched(6,7) matched(5,8) matched(4,1) matched(11,10) matched(10,11) matched(9,12) matched(12,9) matched(16,14) matched(17,15) matched(14,16) matched(15,17) matched(19,18) matched(18,19) matched(13,20) matched(20,13) matched(24,22) matched(25,23) matched(22,24) matched(23,25) matched(27,26) matched(26,27) matched(21,28) matched(28,21) matched(32,30) matched(29,31) matched(30,32) matched(31,29) matched(36,34) matched(37,35) matched(34,36) matched(35,37) matched(39,38) matched(38,39) matched(33,40) matched(40,33)
Optimization: 345
Answer: 3
matched(3,2) matched(2,3) matched(1,4) matched(8,5) matched(7,6) matched(6,7) matched(5,8) matched(4,1) matched(11,10) matched(10,11) matched(9,12) matched(12,9) matched(16,14) matched(17,15) matched(14,16) matched(15,17) matched(19,18) matched(18,19) matched(13,20) matched(20,13) matched(24,22) matched(25,23) matched(22,24) matched(23,25) matched(27,26) matched(26,27) matched(21,28) matched(28,21) matched(32,30) matched(29,31) matched(30,32) matched(31,29) matched(38,34) matched(39,35) matched(37,36) matched(36,37) matched(34,38) matched(35,39) matched(33,40) matched(40,33)
Optimization: 343
Answer: 4
matched(3,2) matched(2,3) matched(1,4) matched(8,5) matched(7,6) matched(6,7) matched(5,8) matched(4,1) matched(11,10) matched(10,11) matched(9,12) matched(12,9) matched(16,14) matched(17,15) matched(14,16) matched(15,17) matched(19,18) matched(18,19) matched(13,20) matched(20,13) matched(24,22) matched(25,23) matched(22,24) matched(23,25) matched(27,26) matched(26,27) matched(21,28) matched(28,21) matched(32,30) matched(29,31) matched(30,32) matched(31,29) matched(38,34) matched(39,35) matched(33,36) matched(40,37) matched(34,38) matched(35,39) matched(37,40) matched(36,33)
Optimization: 331
Answer: 5
matched(4,2) matched(5,3) matched(2,4) matched(3,5) matched(7,6) matched(6,7) matched(1,8) matched(8,1) matched(11,10) matched(10,11) matched(9,12) matched(12,9) matched(16,14) matched(17,15) matched(14,16) matched(15,17) matched(19,18) matched(18,19) matched(13,20) matched(20,13) matched(24,22) matched(25,23) matched(22,24) matched(23,25) matched(27,26) matched(26,27) matched(21,28) matched(28,21) matched(32,30) matched(29,31) matched(30,32) matched(31,29) matched(38,34) matched(39,35) matched(33,36) matched(40,37) matched(34,38) matched(35,39) matched(37,40) matched(36,33)
Optimization: 330
Answer: 6
matched(3,2) matched(2,3) matched(6,4) matched(8,5) matched(4,6) matched(1,7) matched(5,8) matched(7,1) matched(11,10) matched(10,11) matched(9,12) matched(12,9) matched(16,14) matched(17,15) matched(14,16) matched(15,17) matched(19,18) matched(18,19) matched(13,20) matched(20,13) matched(24,22) matched(25,23) matched(22,24) matched(23,25) matched(27,26) matched(26,27) matched(21,28) matched(28,21) matched(32,30) matched(29,31) matched(30,32) matched(31,29) matched(38,34) matched(39,35) matched(33,36) matched(40,37) matched(34,38) matched(35,39) matched(37,40) matched(36,33)
Optimization: 329
Answer: 7
matched(3,2) matched(2,3) matched(1,4) matched(8,5) matched(7,6) matched(6,7) matched(5,8) matched(4,1) matched(9,10) matched(12,11) matched(11,12) matched(10,9) matched(16,14) matched(17,15) matched(14,16) matched(15,17) matched(19,18) matched(18,19) matched(13,20) matched(20,13) matched(26,22) matched(27,23) matched(25,24) matched(24,25) matched(22,26) matched(23,27) matched(21,28) matched(28,21) matched(32,30) matched(29,31) matched(30,32) matched(31,29) matched(38,34) matched(39,35) matched(33,36) matched(40,37) matched(34,38) matched(35,39) matched(37,40) matched(36,33)
Optimization: 324
Answer: 8
matched(3,2) matched(2,3) matched(1,4) matched(8,5) matched(7,6) matched(6,7) matched(5,8) matched(4,1) matched(9,10) matched(12,11) matched(11,12) matched(10,9) matched(16,14) matched(17,15) matched(14,16) matched(15,17) matched(19,18) matched(18,19) matched(13,20) matched(20,13) matched(23,22) matched(22,23) matched(26,24) matched(28,25) matched(24,26) matched(21,27) matched(25,28) matched(27,21) matched(32,30) matched(29,31) matched(30,32) matched(31,29) matched(38,34) matched(39,35) matched(33,36) matched(40,37) matched(34,38) matched(35,39) matched(37,40) matched(36,33)
Optimization: 319
Answer: 9
matched(3,2) matched(2,3) matched(6,4) matched(8,5) matched(4,6) matched(1,7) matched(5,8) matched(7,1) matched(9,10) matched(12,11) matched(11,12) matched(10,9) matched(16,14) matched(17,15) matched(14,16) matched(15,17) matched(19,18) matched(18,19) matched(13,20) matched(20,13) matched(23,22) matched(22,23) matched(26,24) matched(28,25) matched(24,26) matched(21,27) matched(25,28) matched(27,21) matched(32,30) matched(29,31) matched(30,32) matched(31,29) matched(38,34) matched(39,35) matched(33,36) matched(40,37) matched(34,38) matched(35,39) matched(37,40) matched(36,33)
Optimization: 317
OPTIMUM FOUND

Models       : 9
  Optimum    : yes
Optimization : 317
Calls        : 1
Time         : 0.187s (Solving: 0.08s 1st Model: 0.00s Unsat: 0.07s)
CPU Time     : 0.161s
